SimulationType                MonteCarlo
NumberOfCycles                10000
NumberOfInitializationCycles  0
NumberOfEquilibrationCycles   5000
PrintEvery                    1000
NumberOfBlocks                5

Box 0
BoxLengths 40 40 40
ChargeMethod Ewald
EwaldPrecision 1e-6
OmitEwaldFourier no

ExternalTemperature 260.0
ExternalPressure 0.0

GibbsVolumeMoveProbability 0.01

Box 1
BoxLengths 40 40 40
ChargeMethod Ewald
EwaldPrecision 1e-6
OmitEwaldFourier no

ExternalTemperature 260.0
ExternalPressure 0.0

GibbsVolumeMoveProbability 0.01

Component 0 MoleculeName               CO2
            ThermodynamicIntegration   yes
            TranslationProbability     0.2
            RotationProbability        0.2
            ReinsertionProbability     0.2
            SwapProbability            0.0
            CFCMC_CBMC_SwapProbability 0.0
            WidomProbability           0.19
            CBCFCMCWidomProbability    0.0
            GibbsCFCMCSwapProbability  0.2
            GibbsSwapProbability       0.0
            CreateNumberOfMolecules    256 256
