SimulationType                MonteCarlo
NumberOfCycles                100
NumberOfInitializationCycles  100
NumberOfEquilibrationCycles   0
PrintEvery                    100
NumberOfBlocks                5

Box 0
BoxLengths 34 34 34
ChargeMethod Ewald
EwaldPrecision 1e-6
OmitEwaldFourier no

ExternalTemperature 573.0
ExternalPressure 4e7

VolumeMoveProbability 0.01
#ProbabilityCFCRXMCLambdaChangeMove 1.0

Reaction 1 3 0 0 0 2

Component 0 MoleculeName               N2
            LnPartitionFunction        208.188
            TranslationProbability     0.5
            RotationProbability        0.5
            ReinsertionProbability     0.5
            SwapProbability            0.0
            CFCMC_CBMC_SwapProbability 0.0
            WidomProbability           0.0
            CBCFCMCWidomProbability    0.0
            CreateNumberOfMolecules    0

Component 1 MoleculeName               N2
            LnPartitionFunction        93.969
            TranslationProbability     0.5
            RotationProbability        0.5
            ReinsertionProbability     0.5
            SwapProbability            0.0
            CFCMC_CBMC_SwapProbability 0.0
            WidomProbability           0.0
            CBCFCMCWidomProbability    0.0
            CreateNumberOfMolecules    0

Component 2 MoleculeName               NH3
            LnPartitionFunction        253.69
            TranslationProbability     0.5
            RotationProbability        0.5
            ReinsertionProbability     0.5
            SwapProbability            0.0
            CFCMC_CBMC_SwapProbability 0.0
            WidomProbability           0.0
            CBCFCMCWidomProbability    0.0
            CreateNumberOfMolecules    200
