SimulationType                MonteCarlo
NumberOfCycles                200
NumberOfInitializationCycles  200
NumberOfEquilibrationCycles   200
PrintEvery                    1000
NumberOfBlocks                5

Framework 0
FrameworkName MFI_SI
NumberOfUnitCells 2 2 2
ChargeMethod None
#EwaldPrecision 1e-6
EwaldParameters 0.265058 8 8 8
OmitEwaldFourier no

ExternalTemperature 300.0
ExternalPressure 1e4
#HeliumVoidFraction    0.29
#Movies no
#WriteMoviesEvery 1000

Component 0 MoleculeName               CO2
            MolFraction                0.25
            ThermodynamicIntegration   yes
            TranslationProbability     0.5
            RotationProbability        0.5
            ReinsertionProbability     0.5
            SwapProbability            1.0
            CFCMC_SwapProbability      0.0
            CFCMC_CBMC_SwapProbability 0.0
            WidomProbability           0.0
            CBCFCMCWidomProbability    0.0
            CreateNumberOfMolecules    0

Component 1 MoleculeName               methane
            MolFraction                0.75
            ThermodynamicIntegration   no
            TranslationProbability     0.5
            RotationProbability        0.5
            ReinsertionProbability     0.5
            SwapProbability            1.0
            CFCMC_SwapProbability      0.0
            CFCMC_CBMC_SwapProbability 0.0
            WidomProbability           0.0
            CBCFCMCWidomProbability    0.0
            CreateNumberOfMolecules    0
