SimulationType                MonteCarlo
NumberOfCycles                25000
NumberOfInitializationCycles  5000
NumberOfEquilibrationCycles   0
PrintEvery                    1000
NumberOfBlocks                5

Framework 0
FrameworkName MFI_SI
NumberOfUnitCells 2 2 2
EwaldPrecision 1e-6
ChargeMethod Ewald
OmitEwaldFourier no

ExternalTemperature 300.0
ExternalPressure 1e4
#HeliumVoidFraction    0.29
#Movies no
#WriteMoviesEvery 1000

Component 0 MoleculeName               methane
            TranslationProbability     1.0
            RotationProbability        1.0
            ReinsertionProbability     1.0
            SwapProbability            1.0
            CFCMC_CBMC_SwapProbability 0.0
            WidomProbability           0.0
            CBCFCMCWidomProbability    0.0
            CreateNumberOfMolecules    0
