SimulationType                MonteCarlo
NumberOfCycles                50000
NumberOfInitializationCycles  10000
NumberOfEquilibrationCycles   20000
PrintEvery                    1000

NumberOfBlocks 5

NumberOfThreads 1
ThreadingType Serial
#ThreadingType ThreadPool
#ThreadingType OpenMP
#ThreadingType GPU-Offload

Forcefield                    ExampleMoleculeForceField

Box 0
BoxLengths 30 30 30
ChargeMethod None
probabilityVolumeMove 0.05

ExternalTemperature 250.0
ExternalPressure 1e6
HeliumVoidFraction    0.29
Movies no
WriteMoviesEvery 1000

Component 0 MoleculeName               methane
            MoleculeDefinition         ExampleDefinitions
            MolFraction                1.0
            TranslationProbability     0.5
            RotationProbability        0.0
            ReinsertionProbability     0.5
	        SwapProbability            0.0
	        CFCMC_CBMC_SwapProbability 0.0
            WidomProbability           0.0
            CBCFCMCWidomProbability    0.0
            CreateNumberOfMolecules    200
