SimulationType                MonteCarlo
NumberOfCycles                5000000
NumberOfInitializationCycles  50000
NumberOfEquilibrationCycles   50000
PrintEvery                    10000

#Forcefield                    ExampleMOFsForceField
#UseChargesFromCIFFile         yes

Framework 0
    FrameworkName Cu-BTC
    ChargeMethod None
    NumberOfUnitCells 1 1 1
    #HeliumVoidFraction 0.29
    ExternalTemperature 323.0
    ExternalPressure 1e4

Component 0 
    MoleculeName CO2
    #FugacityCoefficient      1.0
    TranslationProbability   0.5
    RotationProbability      0.5
    ReinsertionProbability   0.0
    SwapProbability          1.0
    CFCMC_SwapProbability    0.0
    CreateNumberOfMolecules  0
