SimulationType                MonteCarlo
NumberOfCycles                500000
NumberOfInitializationCycles  20000
PrintEvery                    10000

#Forcefield                    ExampleMOFsForceField
#UseChargesFromCIFFile         yes

Framework 0
    FrameworkName        Cu-BTC
    ChargeMethod         Ewald
    NumberOfUnitCells    1 1 1
    #HeliumVoidFraction  0.29
    ExternalTemperature  323.0
    ExternalPressure     1e4

Component 0 
    MoleculeName             CO2
    FugacityCoefficient      1.0
    TranslationProbability   0.5
    RotationProbability      0.5
    ReinsertionProbability   0.5
    SwapProbability          1.0
    WidomProbability         1.0
    CreateNumberOfMolecules  0
