SimulationType                MonteCarlo
NumberOfCycles                5000000
NumberOfInitializationCycles  50000
PrintEvery                    5000


Framework 0
    FrameworkName MFI_SI
    #Forcefield ExampleZeolitesForceField
    #RemoveAtomNumberCodeFromLabel yes
    NumberOfUnitCells 2 2 2
    #HeliumVoidFraction 0.29
    ExternalTemperature 300.0
    ExternalPressure 1e5
    ChargeMethod None
    
    #ComputeNumberOfMoleculesHistogram yes
    #WriteNumberOfMoleculesHistogramEvery 5000
    #NumberOfMoleculesHistogramSize 1100
    #NumberOfMoleculesRange 80
    #
    #ComputeEnergyHistogram yes
    #WriteEnergyHistogramEvery 5000
    #EnergyHistogramSize 400
    #EnergyHistogramLowerLimit -110000
    #EnergyHistogramUpperLimit -20000

Component 0 
    MoleculeName methane
    MoleculeDefinition ExampleDefinitions
    TranslationProbability 0.5
    ReinsertionProbability 0.5
    SwapProbability 0.0
    CFCMC_SwapProbability 1.0
    CreateNumberOfMolecules  0

