SimulationType                MonteCarlo
NumberOfCycles                1000000
NumberOfInitializationCycles  100000
NumberOfEquilibrationCycles   0
PrintEvery                    5000
NumberOfBlocks                5

Box 0
    BoxLengths           30 30 30
    ChargeMethod         None
    ExternalTemperature  300.0

Component 0 
    MoleculeName             methane
    TranslationProbability   1.0
    CreateNumberOfMolecules  100
