SimulationType                MonteCarlo
NumberOfCycles                20000
NumberOfInitializationCycles  10000
NumberOfEquilibrationCycles   10000
PrintEvery                    1000
#RestartFile                   no

#ChargeMethod                  Ewald
#Forcefield                    ExampleZeolitesForceField
#CutOffVDW                     10.0
#CutOffCharge                  10.0
#RemoveAtomNumberCodeFromLabel yes

Framework 0
    FrameworkName           MFI_SI
    #UseChargesFromCIFFile  no
    NumberOfUnitCells       2 2 2
    #HeliumVoidFraction     0.29
    ExternalTemperature     353
    ExternalPressure        1e7


Component 0 
    MoleculeName                CO2
    MoleculeDefinition          ExampleDefinitions
    #IdealGasRosenbluthWeight   1.0
    FugacityCoefficient         1.0
    TranslationProbability      1.0
    RotationProbability         1.0
    ReinsertionProbability      1.0
    CFCMC_CBMC_SwapProbability  1.0
    CreateNumberOfMolecules     0
