SimulationType                MonteCarlo
NumberOfCycles                10000
NumberOfInitializationCycles  10000
NumberOfEquilibrationCycles   10000
PrintEvery                    5000
NumberOfBlocks                5

Box 0
BoxLengths 35 35 35
ChargeMethod Ewald
EwaldPrecision 1e-6
OmitEwaldFourier no

ExternalTemperature 160.0
ExternalPressure 0.0

GibbsVolumeMoveProbability 0.01

Box 1
BoxLengths 35 35 35
ChargeMethod Ewald
EwaldPrecision 1e-6
OmitEwaldFourier no

ExternalTemperature 160.0
ExternalPressure 0.0

GibbsVolumeMoveProbability 0.01

Component 0 MoleculeName               methane
            TranslationProbability     0.5
            RotationProbability        0.5
            ReinsertionProbability     0.5
            SwapProbability            0.0
            CFCMC_CBMC_SwapProbability 0.0
            WidomProbability           0.0
            CBCFCMCWidomProbability    0.0
	    GibbsCFCMCSwapProbability  1.0
	    GibbsSwapProbability       0.0
            CreateNumberOfMolecules    256 256
