SimulationType                MonteCarlo
NumberOfCycles                2000
NumberOfInitializationCycles  0
NumberOfEquilibrationCycles   1000
PrintEvery                    1000
NumberOfBlocks                5

Box 0
BoxLengths 35 35 35
ChargeMethod None
EwaldPrecision 1e-6
OmitEwaldFourier no

ExternalTemperature 140.0
ExternalPressure 0.0

GibbsVolumeMoveProbability 0.01

Box 1
BoxLengths 35 35 35
ChargeMethod None
EwaldPrecision 1e-6
OmitEwaldFourier no

ExternalTemperature 140.0
ExternalPressure 0.0

GibbsVolumeMoveProbability 0.01

Component 0 MoleculeName               methane
            ThermodynamicIntegration   yes
            TranslationProbability     1.0
            RotationProbability        0.0
            ReinsertionProbability     1.0
            SwapProbability            0.0
            CFCMC_CBMC_SwapProbability 0.0
            WidomProbability           0.0
            CBCFCMCWidomProbability    0.0
            GibbsCFCMCSwapProbability  0.0
            GibbsSwapProbability       0.0
            CreateNumberOfMolecules    128 128
