SimulationType                MonteCarlo
NumberOfCycles                50000
NumberOfInitializationCycles  5000
NumberOfEquilibrationCycles   100000
PrintEvery                    100
NumberOfBlocks                5

Box 0
BoxLengths 35 35 35
ChargeMethod None
EwaldPrecision 1e-6
OmitEwaldFourier no

ExternalTemperature 140.0
ExternalPressure 0.0

GibbsVolumeMoveProbability 0.01

Box 1
BoxLengths 35 35 35
ChargeMethod None
EwaldPrecision 1e-6
OmitEwaldFourier no

ExternalTemperature 140.0
ExternalPressure 0.0

GibbsVolumeMoveProbability 0.01

Component 0 MoleculeName               methane
            ThermodynamicIntegration   yes
            TranslationProbability     0.5
            RotationProbability        0.5
            ReinsertionProbability     0.5
            SwapProbability            0.0
            CFCMC_CBMC_SwapProbability 0.0
            WidomProbability           1.0
            CBCFCMCWidomProbability    0.0
            GibbsCFCMCSwapProbability  1.0
            GibbsSwapProbability       0.0
            CreateNumberOfMolecules    128 128
