SimulationType                MonteCarlo
NumberOfCycles                0
NumberOfInitializationCycles  0
NumberOfEquilibrationCycles   0
PrintEvery                    1000
RestartFile                   yes

Forcefield                    ExampleZeolitesForceField
ChargeMethod                  Ewald
RemoveAtomNumberCodeFromLabel yes

Framework 0
FrameworkName MFI_SI
UnitCells 2 2 2
HeliumVoidFraction 0.29
ExternalTemperature 300.0
ExternalPressure 1e4
UseChargesFromCIFFile yes
EwaldParameters 0.25 8 8 8
NoReciprocalCutOff yes

Component 0 MoleculeName             CO2
            MoleculeDefinition       ExampleDefinitions
            TranslationProbability   0.0
            RotationProbability      0.0
            ReinsertionProbability   0.0
            SwapProbability          0.0
            CreateNumberOfMolecules  0

