SimulationType                MonteCarlo
NumberOfCycles                100000
NumberOfInitializationCycles  15000
NumberOfEquilibrationCycles   0
PrintEvery                    1000
NumberOfBlocks                5

Box 0
BoxLengths 30 30 30
#ExternalField no
EwaldPrecision 1e-6
ChargeMethod None
OmitEwaldFourier no
computeConventionalRDF no

ExternalTemperature 239.6
ExternalPressure 1e6

Component 0 MoleculeName               methane
            TranslationProbability     1.0
            RotationProbability        1.0
            ReinsertionProbability     1.0
            SwapProbability            1.0
            TidomProbability           1.0
            CreateNumberOfMolecules    0
