SimulationType                MonteCarlo
NumberOfCycles                200000
NumberOfInitializationCycles  25000
NumberOfEquilibrationCycles   200000
PrintEvery                    100
NumberOfBlocks                1

Framework 0
Forcefield ExampleMoleculeForceField
FrameworkName   667
NumberOfUnitCells 1 1 1
EwaldPrecision 1e-6
ChargeMethod None
OmitEwaldFourier no

ExternalTemperature 111.58
ExternalPressure    36000
#HeliumVoidFraction 0.29
#Movies no
#WriteMoviesEvery 1000

RunTMMC yes
UseBiasOnMacrostate yes
TMMCMin 84
TMMCMax 168

Component 0 MoleculeName               methane
#           MoleculeDefinition        ExampleDefinitions
            TranslationProbability     1.0
            #RotationProbability       1.0
            ReinsertionProbability     1.0
            SwapProbability            1.0
            CFCMC_CBMC_SwapProbability 0.0
            WidomProbability           0.0
            CBCFCMCWidomProbability    0.0
            CreateNumberOfMolecules    84
