SimulationType                MonteCarlo
NumberOfCycles                40000
NumberOfInitializationCycles  5000
NumberOfEquilibrationCycles   0
PrintEvery                    100
NumberOfBlocks                5

Box 0
BoxLengths 30 30 30
ChargeMethod Ewald
EwaldPrecision 1e-6
OmitEwaldFourier no

ExternalTemperature 300.0
ExternalPressure 200e5

VolumeMoveProbability 0.01

Component 0 MoleculeName               CO2
            TranslationProbability     0.5
            RotationProbability        0.5
            ReinsertionProbability     0.5
            SwapProbability            0.0
            CFCMC_CBMC_SwapProbability 0.0
            WidomProbability           0.0
            CBCFCMCWidomProbability    0.0
            CreateNumberOfMolecules    256
